POSCAR for generated by WannierTools
1.0
    0.000000    0.000000   10.000000
    2.137711   -1.234208    0.000000
    0.000000  148.104960    0.000000
C     
   120
Direct
    0.500000    0.333333    0.011111        C
    0.500000    0.666667    0.005556        C
    0.500000    0.333333    0.027778        C
    0.500000    0.666667    0.022222        C
    0.500000    0.333333    0.044444        C
    0.500000    0.666667    0.038889        C
    0.500000    0.333333    0.061111        C
    0.500000    0.666667    0.055556        C
    0.500000    0.333333    0.077778        C
    0.500000    0.666667    0.072222        C
    0.500000    0.333333    0.094444        C
    0.500000    0.666667    0.088889        C
    0.500000    0.333333    0.111111        C
    0.500000    0.666667    0.105556        C
    0.500000    0.333333    0.127778        C
    0.500000    0.666667    0.122222        C
    0.500000    0.333333    0.144444        C
    0.500000    0.666667    0.138889        C
    0.500000    0.333333    0.161111        C
    0.500000    0.666667    0.155556        C
    0.500000    0.333333    0.177778        C
    0.500000    0.666667    0.172222        C
    0.500000    0.333333    0.194444        C
    0.500000    0.666667    0.188889        C
    0.500000    0.333333    0.211111        C
    0.500000    0.666667    0.205556        C
    0.500000    0.333333    0.227778        C
    0.500000    0.666667    0.222222        C
    0.500000    0.333333    0.244444        C
    0.500000    0.666667    0.238889        C
    0.500000    0.333333    0.261111        C
    0.500000    0.666667    0.255556        C
    0.500000    0.333333    0.277778        C
    0.500000    0.666667    0.272222        C
    0.500000    0.333333    0.294444        C
    0.500000    0.666667    0.288889        C
    0.500000    0.333333    0.311111        C
    0.500000    0.666667    0.305556        C
    0.500000    0.333333    0.327778        C
    0.500000    0.666667    0.322222        C
    0.500000    0.333333    0.344444        C
    0.500000    0.666667    0.338889        C
    0.500000    0.333333    0.361111        C
    0.500000    0.666667    0.355556        C
    0.500000    0.333333    0.377778        C
    0.500000    0.666667    0.372222        C
    0.500000    0.333333    0.394444        C
    0.500000    0.666667    0.388889        C
    0.500000    0.333333    0.411111        C
    0.500000    0.666667    0.405556        C
    0.500000    0.333333    0.427778        C
    0.500000    0.666667    0.422222        C
    0.500000    0.333333    0.444444        C
    0.500000    0.666667    0.438889        C
    0.500000    0.333333    0.461111        C
    0.500000    0.666667    0.455556        C
    0.500000    0.333333    0.477778        C
    0.500000    0.666667    0.472222        C
    0.500000    0.333333    0.494444        C
    0.500000    0.666667    0.488889        C
    0.500000    0.333333    0.511111        C
    0.500000    0.666667    0.505556        C
    0.500000    0.333333    0.527778        C
    0.500000    0.666667    0.522222        C
    0.500000    0.333333    0.544444        C
    0.500000    0.666667    0.538889        C
    0.500000    0.333333    0.561111        C
    0.500000    0.666667    0.555556        C
    0.500000    0.333333    0.577778        C
    0.500000    0.666667    0.572222        C
    0.500000    0.333333    0.594444        C
    0.500000    0.666667    0.588889        C
    0.500000    0.333333    0.611111        C
    0.500000    0.666667    0.605556        C
    0.500000    0.333333    0.627778        C
    0.500000    0.666667    0.622222        C
    0.500000    0.333333    0.644444        C
    0.500000    0.666667    0.638889        C
    0.500000    0.333333    0.661111        C
    0.500000    0.666667    0.655556        C
    0.500000    0.333333    0.677778        C
    0.500000    0.666667    0.672222        C
    0.500000    0.333333    0.694444        C
    0.500000    0.666667    0.688889        C
    0.500000    0.333333    0.711111        C
    0.500000    0.666667    0.705556        C
    0.500000    0.333333    0.727778        C
    0.500000    0.666667    0.722222        C
    0.500000    0.333333    0.744444        C
    0.500000    0.666667    0.738889        C
    0.500000    0.333333    0.761111        C
    0.500000    0.666667    0.755556        C
    0.500000    0.333333    0.777778        C
    0.500000    0.666667    0.772222        C
    0.500000    0.333333    0.794444        C
    0.500000    0.666667    0.788889        C
    0.500000    0.333333    0.811111        C
    0.500000    0.666667    0.805556        C
    0.500000    0.333333    0.827778        C
    0.500000    0.666667    0.822222        C
    0.500000    0.333333    0.844444        C
    0.500000    0.666667    0.838889        C
    0.500000    0.333333    0.861111        C
    0.500000    0.666667    0.855556        C
    0.500000    0.333333    0.877778        C
    0.500000    0.666667    0.872222        C
    0.500000    0.333333    0.894444        C
    0.500000    0.666667    0.888889        C
    0.500000    0.333333    0.911111        C
    0.500000    0.666667    0.905556        C
    0.500000    0.333333    0.927778        C
    0.500000    0.666667    0.922222        C
    0.500000    0.333333    0.944444        C
    0.500000    0.666667    0.938889        C
    0.500000    0.333333    0.961111        C
    0.500000    0.666667    0.955556        C
    0.500000    0.333333    0.977778        C
    0.500000    0.666667    0.972222        C
    0.500000    0.333333    0.994444        C
    0.500000    0.666667    0.988889        C
