POSCAR for generated by WannierTools
1.0
    2.137711   -1.234208    0.000000
    0.000000    2.468416    0.000000
    0.000000    0.000000   10.000000
C     
     2
Direct
    0.333333    0.666667    0.500000        C
    0.666667    0.333333    0.500000        C
